NAME : 0
COMMENT : CVRP Instance
TYPE : CVRP
DIMENSION : 916
EDGE_WEIGHT_TYPE : EUC_2D
CAPACITY : 33
NODE_COORD_SECTION
1	0.0	0.0
2	471.0	44.0
3	63.0	475.0
4	766.0	504.0
5	895.0	595.0
6	816.0	377.0
7	462.0	590.0
8	997.0	596.0
9	775.0	993.0
10	16.0	97.0
11	839.0	348.0
12	558.0	896.0
13	423.0	912.0
14	169.0	411.0
15	75.0	602.0
16	402.0	52.0
17	388.0	208.0
18	202.0	39.0
19	510.0	841.0
20	555.0	484.0
21	920.0	633.0
22	369.0	718.0
23	432.0	696.0
24	624.0	872.0
25	472.0	323.0
26	753.0	701.0
27	584.0	440.0
28	292.0	665.0
29	202.0	310.0
30	764.0	255.0
31	662.0	486.0
32	822.0	575.0
33	469.0	13.0
34	640.0	165.0
35	814.0	886.0
36	554.0	82.0
37	336.0	745.0
38	950.0	229.0
39	142.0	835.0
40	407.0	932.0
41	69.0	205.0
42	86.0	764.0
43	202.0	165.0
44	376.0	632.0
45	639.0	987.0
46	775.0	98.0
47	503.0	855.0
48	38.0	960.0
49	215.0	73.0
50	566.0	78.0
51	4.0	517.0
52	44.0	457.0
53	676.0	337.0
54	338.0	568.0
55	623.0	911.0
56	626.0	931.0
57	97.0	43.0
58	799.0	942.0
59	725.0	430.0
60	93.0	953.0
61	264.0	347.0
62	986.0	595.0
63	631.0	614.0
64	331.0	362.0
65	158.0	793.0
66	760.0	436.0
67	115.0	641.0
68	307.0	764.0
69	469.0	817.0
70	315.0	388.0
71	906.0	830.0
72	564.0	25.0
73	88.0	246.0
74	671.0	892.0
75	181.0	139.0
76	723.0	784.0
77	609.0	798.0
78	174.0	403.0
79	76.0	671.0
80	984.0	939.0
81	830.0	579.0
82	3.0	893.0
83	176.0	164.0
84	625.0	158.0
85	249.0	590.0
86	663.0	347.0
87	21.0	500.0
88	501.0	372.0
89	572.0	218.0
90	483.0	270.0
91	604.0	201.0
92	548.0	281.0
93	205.0	745.0
94	125.0	178.0
95	870.0	931.0
96	276.0	846.0
97	759.0	839.0
98	79.0	105.0
99	218.0	992.0
100	277.0	797.0
101	545.0	62.0
102	161.0	102.0
103	1.0	827.0
104	719.0	128.0
105	80.0	366.0
106	16.0	732.0
107	24.0	521.0
108	848.0	600.0
109	585.0	594.0
110	618.0	577.0
111	44.0	300.0
112	489.0	239.0
113	479.0	978.0
114	768.0	731.0
115	274.0	30.0
116	546.0	837.0
117	890.0	640.0
118	594.0	308.0
119	878.0	716.0
120	498.0	448.0
121	145.0	96.0
122	54.0	935.0
123	473.0	5.0
124	906.0	899.0
125	277.0	752.0
126	435.0	254.0
127	630.0	686.0
128	905.0	275.0
129	521.0	401.0
130	850.0	425.0
131	374.0	186.0
132	712.0	433.0
133	814.0	730.0
134	740.0	622.0
135	681.0	74.0
136	120.0	490.0
137	297.0	816.0
138	376.0	534.0
139	982.0	560.0
140	1.0	332.0
141	815.0	625.0
142	356.0	868.0
143	659.0	994.0
144	804.0	110.0
145	415.0	517.0
146	106.0	844.0
147	549.0	366.0
148	57.0	742.0
149	848.0	739.0
150	381.0	700.0
151	442.0	808.0
152	867.0	408.0
153	67.0	930.0
154	763.0	186.0
155	581.0	91.0
156	416.0	56.0
157	729.0	620.0
158	163.0	73.0
159	160.0	129.0
160	468.0	902.0
161	694.0	730.0
162	319.0	644.0
163	831.0	476.0
164	863.0	921.0
165	524.0	71.0
166	299.0	197.0
167	193.0	823.0
168	18.0	360.0
169	987.0	845.0
170	998.0	548.0
171	302.0	506.0
172	432.0	229.0
173	550.0	142.0
174	637.0	527.0
175	168.0	0.0
176	178.0	804.0
177	888.0	448.0
178	270.0	481.0
179	250.0	421.0
180	410.0	125.0
181	373.0	134.0
182	275.0	772.0
183	965.0	25.0
184	858.0	502.0
185	587.0	967.0
186	860.0	275.0
187	178.0	710.0
188	331.0	4.0
189	811.0	598.0
190	560.0	886.0
191	712.0	512.0
192	216.0	974.0
193	528.0	75.0
194	740.0	12.0
195	840.0	109.0
196	980.0	512.0
197	928.0	334.0
198	90.0	78.0
199	788.0	322.0
200	665.0	990.0
201	400.0	702.0
202	131.0	24.0
203	238.0	610.0
204	392.0	541.0
205	40.0	394.0
206	713.0	806.0
207	823.0	571.0
208	863.0	568.0
209	145.0	20.0
210	509.0	893.0
211	629.0	447.0
212	854.0	236.0
213	717.0	78.0
214	525.0	774.0
215	695.0	620.0
216	721.0	979.0
217	957.0	457.0
218	594.0	451.0
219	514.0	110.0
220	899.0	994.0
221	772.0	937.0
222	877.0	942.0
223	533.0	82.0
224	399.0	742.0
225	273.0	688.0
226	360.0	780.0
227	650.0	339.0
228	312.0	455.0
229	272.0	771.0
230	362.0	515.0
231	716.0	823.0
232	307.0	627.0
233	787.0	639.0
234	28.0	212.0
235	38.0	119.0
236	130.0	518.0
237	535.0	632.0
238	832.0	952.0
239	874.0	955.0
240	106.0	653.0
241	440.0	485.0
242	73.0	329.0
243	934.0	692.0
244	638.0	325.0
245	126.0	820.0
246	382.0	958.0
247	884.0	840.0
248	706.0	90.0
249	424.0	652.0
250	216.0	964.0
251	841.0	543.0
252	370.0	271.0
253	863.0	886.0
254	361.0	490.0
255	875.0	91.0
256	266.0	457.0
257	179.0	817.0
258	430.0	197.0
259	512.0	412.0
260	111.0	1.0
261	811.0	631.0
262	366.0	758.0
263	227.0	575.0
264	197.0	524.0
265	398.0	905.0
266	939.0	361.0
267	953.0	287.0
268	897.0	410.0
269	285.0	104.0
270	245.0	215.0
271	569.0	401.0
272	159.0	310.0
273	20.0	90.0
274	212.0	39.0
275	415.0	407.0
276	13.0	641.0
277	855.0	610.0
278	95.0	571.0
279	780.0	936.0
280	63.0	84.0
281	240.0	801.0
282	977.0	62.0
283	405.0	258.0
284	995.0	89.0
285	334.0	695.0
286	265.0	783.0
287	988.0	790.0
288	68.0	368.0
289	497.0	712.0
290	201.0	513.0
291	676.0	581.0
292	625.0	400.0
293	791.0	162.0
294	351.0	55.0
295	572.0	827.0
296	584.0	930.0
297	482.0	749.0
298	110.0	723.0
299	230.0	362.0
300	942.0	467.0
301	540.0	63.0
302	202.0	848.0
303	161.0	162.0
304	272.0	788.0
305	137.0	87.0
306	177.0	274.0
307	324.0	842.0
308	229.0	434.0
309	149.0	697.0
310	916.0	866.0
311	634.0	157.0
312	42.0	213.0
313	655.0	154.0
314	123.0	1000.0
315	460.0	506.0
316	21.0	698.0
317	435.0	615.0
318	838.0	67.0
319	120.0	425.0
320	54.0	726.0
321	475.0	624.0
322	923.0	980.0
323	391.0	94.0
324	105.0	901.0
325	463.0	618.0
326	568.0	659.0
327	999.0	831.0
328	719.0	93.0
329	290.0	423.0
330	796.0	547.0
331	123.0	595.0
332	515.0	939.0
333	550.0	757.0
334	954.0	98.0
335	898.0	486.0
336	695.0	337.0
337	40.0	727.0
338	217.0	284.0
339	910.0	245.0
340	536.0	956.0
341	262.0	332.0
342	91.0	91.0
343	697.0	755.0
344	894.0	726.0
345	919.0	962.0
346	909.0	22.0
347	253.0	535.0
348	703.0	346.0
349	416.0	895.0
350	330.0	596.0
351	524.0	250.0
352	475.0	780.0
353	365.0	803.0
354	844.0	845.0
355	909.0	202.0
356	802.0	755.0
357	77.0	246.0
358	266.0	819.0
359	759.0	835.0
360	850.0	267.0
361	71.0	176.0
362	244.0	82.0
363	881.0	234.0
364	867.0	75.0
365	564.0	436.0
366	749.0	216.0
367	30.0	624.0
368	677.0	208.0
369	980.0	257.0
370	582.0	317.0
371	421.0	870.0
372	183.0	454.0
373	442.0	766.0
374	875.0	497.0
375	217.0	979.0
376	867.0	873.0
377	280.0	473.0
378	582.0	382.0
379	35.0	597.0
380	287.0	284.0
381	527.0	786.0
382	991.0	617.0
383	448.0	513.0
384	581.0	780.0
385	415.0	498.0
386	215.0	359.0
387	478.0	154.0
388	964.0	211.0
389	886.0	296.0
390	696.0	784.0
391	102.0	90.0
392	227.0	699.0
393	76.0	258.0
394	705.0	580.0
395	752.0	531.0
396	246.0	128.0
397	834.0	350.0
398	838.0	453.0
399	809.0	825.0
400	468.0	650.0
401	204.0	930.0
402	523.0	626.0
403	110.0	964.0
404	422.0	180.0
405	940.0	246.0
406	513.0	333.0
407	446.0	78.0
408	212.0	903.0
409	992.0	939.0
410	392.0	329.0
411	58.0	941.0
412	24.0	763.0
413	17.0	536.0
414	70.0	381.0
415	142.0	464.0
416	621.0	976.0
417	878.0	960.0
418	286.0	774.0
419	349.0	202.0
420	841.0	520.0
421	134.0	20.0
422	107.0	804.0
423	278.0	847.0
424	103.0	639.0
425	555.0	920.0
426	427.0	289.0
427	987.0	735.0
428	905.0	345.0
429	608.0	750.0
430	471.0	58.0
431	482.0	339.0
432	319.0	913.0
433	966.0	994.0
434	288.0	458.0
435	225.0	777.0
436	501.0	384.0
437	3.0	25.0
438	259.0	851.0
439	632.0	304.0
440	180.0	66.0
441	300.0	608.0
442	591.0	113.0
443	569.0	817.0
444	165.0	31.0
445	137.0	397.0
446	820.0	139.0
447	858.0	354.0
448	846.0	618.0
449	0.0	438.0
450	308.0	337.0
451	772.0	594.0
452	684.0	931.0
453	76.0	667.0
454	750.0	130.0
455	538.0	354.0
456	725.0	339.0
457	758.0	410.0
458	664.0	460.0
459	837.0	95.0
460	90.0	978.0
461	137.0	885.0
462	898.0	281.0
463	301.0	417.0
464	480.0	247.0
465	441.0	215.0
466	749.0	43.0
467	119.0	871.0
468	77.0	906.0
469	30.0	919.0
470	481.0	281.0
471	680.0	2.0
472	262.0	513.0
473	892.0	100.0
474	291.0	346.0
475	297.0	568.0
476	248.0	393.0
477	41.0	933.0
478	904.0	115.0
479	32.0	959.0
480	535.0	246.0
481	383.0	373.0
482	790.0	155.0
483	351.0	192.0
484	974.0	278.0
485	853.0	66.0
486	402.0	223.0
487	946.0	112.0
488	282.0	298.0
489	125.0	815.0
490	542.0	231.0
491	414.0	364.0
492	126.0	877.0
493	867.0	55.0
494	356.0	901.0
495	432.0	398.0
496	943.0	107.0
497	50.0	932.0
498	152.0	996.0
499	456.0	587.0
500	249.0	311.0
501	993.0	242.0
502	499.0	264.0
503	801.0	81.0
504	740.0	343.0
505	947.0	194.0
506	413.0	424.0
507	885.0	23.0
508	22.0	856.0
509	120.0	843.0
510	878.0	250.0
511	285.0	767.0
512	62.0	901.0
513	923.0	284.0
514	967.0	327.0
515	647.0	167.0
516	284.0	481.0
517	474.0	146.0
518	879.0	57.0
519	69.0	955.0
520	226.0	446.0
521	681.0	214.0
522	10.0	764.0
523	303.0	406.0
524	306.0	364.0
525	443.0	329.0
526	256.0	544.0
527	164.0	890.0
528	902.0	315.0
529	99.0	834.0
530	246.0	156.0
531	244.0	466.0
532	744.0	203.0
533	795.0	267.0
534	484.0	108.0
535	152.0	734.0
536	182.0	883.0
537	862.0	64.0
538	403.0	167.0
539	80.0	925.0
540	918.0	400.0
541	888.0	170.0
542	122.0	356.0
543	970.0	207.0
544	838.0	63.0
545	772.0	29.0
546	481.0	228.0
547	132.0	920.0
548	159.0	405.0
549	73.0	851.0
550	142.0	807.0
551	631.0	386.0
552	927.0	39.0
553	220.0	898.0
554	374.0	989.0
555	269.0	417.0
556	568.0	286.0
557	289.0	426.0
558	936.0	279.0
559	869.0	414.0
560	197.0	686.0
561	187.0	768.0
562	369.0	80.0
563	166.0	764.0
564	908.0	249.0
565	224.0	440.0
566	337.0	486.0
567	220.0	794.0
568	74.0	791.0
569	53.0	1000.0
570	787.0	73.0
571	787.0	362.0
572	750.0	177.0
573	254.0	284.0
574	547.0	281.0
575	172.0	865.0
576	24.0	961.0
577	277.0	387.0
578	887.0	262.0
579	687.0	320.0
580	156.0	826.0
581	310.0	852.0
582	239.0	787.0
583	63.0	961.0
584	414.0	304.0
585	385.0	451.0
586	297.0	604.0
587	122.0	849.0
588	500.0	280.0
589	308.0	485.0
590	216.0	326.0
591	788.0	310.0
592	120.0	859.0
593	952.0	262.0
594	50.0	951.0
595	51.0	885.0
596	521.0	285.0
597	566.0	179.0
598	51.0	802.0
599	234.0	720.0
600	297.0	461.0
601	102.0	907.0
602	602.0	414.0
603	568.0	274.0
604	977.0	339.0
605	363.0	614.0
606	192.0	888.0
607	262.0	418.0
608	877.0	28.0
609	266.0	562.0
610	283.0	404.0
611	21.0	904.0
612	978.0	188.0
613	464.0	235.0
614	125.0	935.0
615	436.0	737.0
616	85.0	979.0
617	827.0	264.0
618	127.0	983.0
619	498.0	199.0
620	883.0	290.0
621	553.0	441.0
622	135.0	897.0
623	118.0	745.0
624	782.0	44.0
625	863.0	44.0
626	399.0	329.0
627	494.0	238.0
628	348.0	368.0
629	871.0	87.0
630	281.0	341.0
631	437.0	236.0
632	231.0	337.0
633	479.0	274.0
634	589.0	30.0
635	486.0	301.0
636	367.0	425.0
637	261.0	354.0
638	890.0	143.0
639	494.0	186.0
640	417.0	390.0
641	169.0	825.0
642	294.0	291.0
643	934.0	247.0
644	199.0	952.0
645	491.0	210.0
646	547.0	203.0
647	266.0	398.0
648	879.0	167.0
649	810.0	114.0
650	165.0	950.0
651	366.0	344.0
652	138.0	699.0
653	121.0	678.0
654	458.0	199.0
655	265.0	932.0
656	150.0	301.0
657	306.0	272.0
658	141.0	910.0
659	520.0	532.0
660	48.0	853.0
661	941.0	342.0
662	185.0	796.0
663	184.0	339.0
664	961.0	294.0
665	925.0	179.0
666	113.0	864.0
667	254.0	377.0
668	785.0	101.0
669	944.0	220.0
670	392.0	85.0
671	223.0	275.0
672	72.0	966.0
673	451.0	269.0
674	272.0	419.0
675	213.0	987.0
676	542.0	240.0
677	435.0	278.0
678	590.0	292.0
679	816.0	399.0
680	10.0	893.0
681	912.0	350.0
682	932.0	281.0
683	431.0	819.0
684	102.0	918.0
685	915.0	417.0
686	248.0	506.0
687	507.0	957.0
688	610.0	313.0
689	104.0	710.0
690	445.0	305.0
691	899.0	164.0
692	91.0	921.0
693	968.0	286.0
694	530.0	28.0
695	772.0	457.0
696	520.0	202.0
697	821.0	71.0
698	408.0	363.0
699	568.0	311.0
700	420.0	267.0
701	331.0	433.0
702	897.0	47.0
703	721.0	109.0
704	783.0	26.0
705	843.0	135.0
706	649.0	30.0
707	792.0	295.0
708	817.0	187.0
709	310.0	398.0
710	108.0	980.0
711	113.0	943.0
712	627.0	268.0
713	843.0	9.0
714	827.0	183.0
715	469.0	247.0
716	293.0	476.0
717	48.0	802.0
718	299.0	571.0
719	177.0	983.0
720	247.0	818.0
721	485.0	205.0
722	926.0	105.0
723	198.0	537.0
724	193.0	518.0
725	941.0	160.0
726	319.0	377.0
727	212.0	832.0
728	263.0	293.0
729	506.0	64.0
730	124.0	894.0
731	277.0	359.0
732	325.0	320.0
733	720.0	133.0
734	82.0	861.0
735	100.0	923.0
736	585.0	222.0
737	496.0	113.0
738	820.0	51.0
739	131.0	436.0
740	280.0	364.0
741	175.0	812.0
742	921.0	343.0
743	678.0	290.0
744	960.0	590.0
745	927.0	210.0
746	106.0	895.0
747	287.0	535.0
748	494.0	399.0
749	418.0	389.0
750	563.0	224.0
751	414.0	374.0
752	227.0	316.0
753	234.0	332.0
754	858.0	251.0
755	345.0	175.0
756	129.0	946.0
757	908.0	99.0
758	401.0	449.0
759	125.0	846.0
760	226.0	934.0
761	915.0	307.0
762	420.0	185.0
763	153.0	899.0
764	99.0	895.0
765	858.0	255.0
766	904.0	280.0
767	836.0	295.0
768	954.0	91.0
769	307.0	462.0
770	63.0	942.0
771	234.0	500.0
772	990.0	351.0
773	64.0	844.0
774	16.0	979.0
775	746.0	95.0
776	110.0	822.0
777	874.0	368.0
778	282.0	437.0
779	735.0	65.0
780	343.0	882.0
781	273.0	905.0
782	16.0	952.0
783	698.0	290.0
784	797.0	162.0
785	836.0	112.0
786	519.0	268.0
787	171.0	891.0
788	392.0	244.0
789	889.0	215.0
790	822.0	706.0
791	567.0	222.0
792	569.0	663.0
793	254.0	984.0
794	939.0	225.0
795	953.0	324.0
796	202.0	931.0
797	882.0	219.0
798	252.0	380.0
799	64.0	517.0
800	875.0	542.0
801	786.0	222.0
802	908.0	103.0
803	915.0	177.0
804	321.0	438.0
805	908.0	150.0
806	205.0	294.0
807	408.0	460.0
808	189.0	798.0
809	93.0	968.0
810	889.0	238.0
811	296.0	871.0
812	467.0	189.0
813	497.0	523.0
814	329.0	391.0
815	80.0	869.0
816	868.0	149.0
817	548.0	355.0
818	630.0	125.0
819	322.0	213.0
820	874.0	134.0
821	897.0	281.0
822	154.0	894.0
823	41.0	883.0
824	474.0	446.0
825	221.0	764.0
826	917.0	309.0
827	390.0	957.0
828	435.0	336.0
829	862.0	457.0
830	144.0	827.0
831	131.0	239.0
832	396.0	258.0
833	143.0	938.0
834	817.0	68.0
835	868.0	115.0
836	155.0	951.0
837	861.0	244.0
838	484.0	279.0
839	252.0	836.0
840	413.0	905.0
841	141.0	914.0
842	124.0	934.0
843	121.0	908.0
844	520.0	191.0
845	223.0	490.0
846	775.0	116.0
847	932.0	226.0
848	807.0	379.0
849	254.0	997.0
850	332.0	319.0
851	808.0	87.0
852	956.0	173.0
853	973.0	410.0
854	549.0	147.0
855	517.0	226.0
856	151.0	969.0
857	284.0	419.0
858	851.0	84.0
859	383.0	311.0
860	456.0	720.0
861	816.0	63.0
862	336.0	428.0
863	305.0	293.0
864	944.0	359.0
865	185.0	820.0
866	18.0	846.0
867	861.0	274.0
868	50.0	970.0
869	869.0	277.0
870	872.0	242.0
871	370.0	207.0
872	46.0	964.0
873	541.0	303.0
874	442.0	386.0
875	835.0	160.0
876	206.0	314.0
877	361.0	437.0
878	877.0	322.0
879	504.0	198.0
880	533.0	279.0
881	307.0	397.0
882	205.0	953.0
883	78.0	882.0
884	390.0	508.0
885	150.0	966.0
886	983.0	411.0
887	561.0	527.0
888	709.0	161.0
889	71.0	969.0
890	47.0	963.0
891	786.0	186.0
892	960.0	209.0
893	698.0	347.0
894	923.0	254.0
895	999.0	380.0
896	408.0	243.0
897	360.0	419.0
898	71.0	883.0
899	677.0	170.0
900	510.0	245.0
901	973.0	291.0
902	39.0	922.0
903	156.0	902.0
904	37.0	1000.0
905	966.0	301.0
906	344.0	450.0
907	112.0	334.0
908	133.0	830.0
909	107.0	466.0
910	798.0	121.0
911	224.0	769.0
912	503.0	237.0
913	294.0	796.0
914	521.0	264.0
915	113.0	820.0
916	996.0	220.0
DEMAND_SECTION
1	0
2	8
3	6
4	7
5	6
6	10
7	10
8	5
9	7
10	8
11	8
12	6
13	6
14	6
15	6
16	5
17	8
18	6
19	10
20	9
21	8
22	9
23	6
24	10
25	10
26	6
27	6
28	6
29	9
30	9
31	10
32	9
33	6
34	5
35	5
36	6
37	10
38	8
39	5
40	6
41	9
42	8
43	7
44	8
45	6
46	7
47	6
48	5
49	7
50	9
51	8
52	8
53	10
54	8
55	7
56	10
57	6
58	5
59	6
60	10
61	7
62	6
63	7
64	8
65	9
66	9
67	9
68	6
69	10
70	7
71	9
72	5
73	7
74	9
75	6
76	5
77	9
78	6
79	5
80	5
81	5
82	7
83	10
84	10
85	6
86	9
87	7
88	10
89	10
90	7
91	10
92	7
93	9
94	5
95	9
96	8
97	7
98	8
99	10
100	10
101	7
102	10
103	6
104	6
105	5
106	10
107	10
108	6
109	5
110	7
111	7
112	5
113	5
114	7
115	9
116	9
117	8
118	5
119	7
120	9
121	7
122	7
123	9
124	5
125	9
126	5
127	6
128	6
129	8
130	10
131	7
132	8
133	9
134	10
135	6
136	8
137	7
138	6
139	7
140	5
141	5
142	6
143	8
144	10
145	10
146	8
147	10
148	9
149	6
150	10
151	5
152	5
153	7
154	5
155	10
156	6
157	8
158	8
159	5
160	9
161	6
162	7
163	7
164	6
165	9
166	8
167	10
168	10
169	6
170	9
171	9
172	5
173	5
174	8
175	10
176	6
177	8
178	5
179	7
180	5
181	5
182	10
183	9
184	10
185	8
186	7
187	6
188	5
189	8
190	6
191	5
192	9
193	9
194	5
195	9
196	7
197	8
198	8
199	9
200	10
201	10
202	7
203	8
204	7
205	6
206	9
207	10
208	10
209	7
210	10
211	5
212	10
213	8
214	8
215	8
216	9
217	8
218	8
219	8
220	10
221	8
222	7
223	6
224	9
225	10
226	7
227	5
228	6
229	9
230	8
231	6
232	8
233	7
234	7
235	5
236	7
237	8
238	6
239	5
240	8
241	6
242	6
243	10
244	8
245	9
246	6
247	7
248	7
249	5
250	7
251	10
252	6
253	5
254	10
255	6
256	10
257	7
258	10
259	9
260	5
261	5
262	5
263	8
264	8
265	5
266	8
267	10
268	6
269	7
270	9
271	8
272	6
273	9
274	10
275	10
276	6
277	10
278	9
279	7
280	10
281	9
282	5
283	6
284	10
285	5
286	5
287	7
288	9
289	9
290	10
291	6
292	5
293	10
294	7
295	7
296	8
297	10
298	5
299	5
300	7
301	10
302	8
303	10
304	7
305	8
306	10
307	9
308	8
309	10
310	7
311	10
312	10
313	6
314	7
315	6
316	8
317	9
318	7
319	6
320	5
321	9
322	6
323	8
324	9
325	6
326	6
327	5
328	7
329	6
330	10
331	7
332	5
333	5
334	8
335	8
336	6
337	6
338	7
339	7
340	7
341	5
342	9
343	7
344	6
345	5
346	9
347	5
348	6
349	7
350	8
351	10
352	9
353	5
354	6
355	9
356	6
357	7
358	5
359	9
360	10
361	10
362	6
363	5
364	8
365	6
366	10
367	10
368	5
369	7
370	8
371	10
372	7
373	9
374	7
375	6
376	7
377	6
378	10
379	7
380	7
381	9
382	10
383	5
384	8
385	6
386	8
387	9
388	10
389	7
390	7
391	6
392	10
393	8
394	10
395	9
396	5
397	7
398	7
399	7
400	5
401	10
402	5
403	10
404	7
405	9
406	10
407	5
408	8
409	5
410	5
411	7
412	7
413	7
414	5
415	10
416	7
417	10
418	8
419	6
420	10
421	7
422	10
423	8
424	5
425	9
426	10
427	6
428	10
429	9
430	8
431	6
432	9
433	7
434	6
435	8
436	6
437	7
438	9
439	10
440	6
441	6
442	5
443	9
444	6
445	7
446	9
447	10
448	9
449	10
450	6
451	7
452	8
453	9
454	5
455	7
456	6
457	6
458	7
459	9
460	7
461	8
462	9
463	5
464	5
465	6
466	10
467	9
468	9
469	10
470	8
471	8
472	6
473	9
474	5
475	6
476	7
477	9
478	6
479	8
480	8
481	9
482	6
483	10
484	6
485	7
486	6
487	5
488	5
489	9
490	7
491	5
492	9
493	10
494	8
495	6
496	9
497	7
498	6
499	7
500	6
501	6
502	8
503	5
504	8
505	9
506	5
507	6
508	5
509	9
510	5
511	6
512	9
513	5
514	5
515	9
516	5
517	8
518	6
519	10
520	8
521	9
522	10
523	5
524	6
525	10
526	8
527	5
528	7
529	7
530	6
531	6
532	6
533	9
534	9
535	6
536	9
537	7
538	5
539	6
540	8
541	8
542	10
543	7
544	10
545	9
546	8
547	9
548	8
549	7
550	6
551	8
552	8
553	10
554	10
555	8
556	6
557	9
558	7
559	5
560	5
561	5
562	10
563	6
564	10
565	8
566	6
567	5
568	9
569	10
570	6
571	6
572	5
573	6
574	6
575	6
576	9
577	5
578	9
579	10
580	9
581	5
582	5
583	5
584	7
585	5
586	8
587	8
588	5
589	8
590	7
591	7
592	8
593	9
594	7
595	7
596	8
597	9
598	9
599	6
600	5
601	6
602	7
603	6
604	5
605	5
606	7
607	7
608	6
609	5
610	8
611	6
612	5
613	10
614	6
615	5
616	7
617	9
618	10
619	5
620	10
621	8
622	5
623	10
624	7
625	6
626	8
627	8
628	7
629	7
630	10
631	10
632	10
633	10
634	9
635	6
636	9
637	5
638	7
639	5
640	6
641	5
642	6
643	7
644	9
645	9
646	6
647	10
648	10
649	8
650	9
651	10
652	10
653	10
654	6
655	8
656	7
657	7
658	7
659	8
660	9
661	10
662	5
663	9
664	9
665	8
666	6
667	10
668	7
669	7
670	6
671	10
672	6
673	5
674	9
675	8
676	5
677	10
678	7
679	5
680	10
681	6
682	7
683	10
684	9
685	9
686	5
687	5
688	8
689	8
690	6
691	7
692	9
693	6
694	9
695	5
696	7
697	5
698	10
699	6
700	6
701	7
702	9
703	5
704	5
705	7
706	5
707	7
708	6
709	7
710	8
711	10
712	5
713	8
714	9
715	5
716	6
717	5
718	7
719	8
720	8
721	8
722	9
723	5
724	10
725	9
726	8
727	6
728	8
729	9
730	10
731	5
732	9
733	5
734	7
735	6
736	9
737	10
738	5
739	5
740	9
741	9
742	5
743	9
744	7
745	10
746	9
747	6
748	10
749	6
750	8
751	9
752	5
753	10
754	6
755	6
756	8
757	7
758	5
759	9
760	7
761	7
762	5
763	7
764	10
765	8
766	9
767	8
768	10
769	6
770	5
771	6
772	8
773	9
774	7
775	5
776	8
777	5
778	8
779	6
780	5
781	7
782	6
783	10
784	10
785	8
786	8
787	5
788	9
789	6
790	9
791	9
792	6
793	10
794	7
795	6
796	5
797	6
798	6
799	7
800	6
801	10
802	5
803	9
804	7
805	9
806	6
807	7
808	6
809	10
810	5
811	6
812	5
813	9
814	9
815	6
816	5
817	10
818	9
819	7
820	9
821	9
822	6
823	5
824	5
825	8
826	6
827	6
828	9
829	10
830	8
831	8
832	9
833	9
834	10
835	10
836	5
837	9
838	6
839	10
840	6
841	9
842	8
843	10
844	10
845	5
846	9
847	8
848	5
849	8
850	5
851	10
852	5
853	10
854	10
855	9
856	9
857	6
858	7
859	8
860	10
861	10
862	5
863	5
864	5
865	7
866	10
867	6
868	6
869	5
870	8
871	6
872	7
873	7
874	10
875	6
876	5
877	5
878	10
879	10
880	9
881	8
882	6
883	9
884	9
885	10
886	7
887	7
888	5
889	8
890	10
891	10
892	5
893	7
894	7
895	7
896	10
897	7
898	9
899	9
900	10
901	9
902	10
903	8
904	8
905	7
906	5
907	5
908	10
909	8
910	8
911	10
912	5
913	5
914	8
915	9
916	6
DEPOT_SECTION
1
-1
EOF
